Instance name: /home/cuong/CLionProjects/uMV-FSTSP/50_dis_rand_ins/v37
Write arg val: 1

drone speed: 1 miles/minute
uav non-eligible customer: 3 11 
Printing tau:
0 13.7062 39.141 45.6705 32.6542 37.9097 43.0647 44.2553 58.0249 81.7669 83.2297 0 
13.7062 0 49.2234 55.753 42.7367 47.9921 53.1472 50.3443 44.3186 91.8494 93.3122 13.7062 
39.141 49.2234 0 19.6337 29.6737 24.3461 25.4278 64.0386 77.8081 43.2052 44.0888 39.141 
45.6705 55.753 19.6337 0 49.3074 43.9797 45.0614 83.6722 97.4418 62.8388 55.9779 45.6705 
32.6542 42.7367 29.6737 49.3074 0 5.32766 10.4105 34.3648 48.1344 49.1127 50.5755 32.6542 
37.9097 47.9921 24.3461 43.9797 5.32766 0 5.15502 39.6925 53.4621 43.8572 45.3201 37.9097 
43.0647 53.1472 25.4278 45.0614 10.4105 5.15502 0 38.6108 52.3804 38.7022 40.165 43.0647 
44.2553 50.3443 64.0386 83.6722 34.3648 39.6925 38.6108 0 13.7696 41.5051 42.9679 44.2553 
58.0249 44.3186 77.8081 97.4418 48.1344 53.4621 52.3804 13.7696 0 55.061 56.5238 58.0249 
81.7669 91.8494 43.2052 62.8388 49.1127 43.8572 38.7022 41.5051 55.061 0 6.86099 81.7669 
83.2297 93.3122 44.0888 55.9779 50.5755 45.3201 40.165 42.9679 56.5238 6.86099 0 83.2297 
0 0 0 0 0 0 0 0 0 0 0 0 
Printing tau_prime:
0 4.51183 11.6292 15.9969 9.04722 10.1249 11.5169 15.8646 16.9376 22.5537 22.5023 0 
4.51183 0 15.7868 20.4202 11.3774 12.9547 14.254 15.615 15.273 24.4911 24.7547 4.51183 
11.6292 15.7868 0 5.48652 8.05424 6.46397 6.82235 16.9834 20.8938 16.0937 15.1509 11.6292 
15.9969 20.4202 5.48652 0 13.5225 11.8421 11.9687 22.2333 26.323 19.2161 17.875 15.9969 
9.04722 11.3774 8.05424 13.5225 0 1.98438 2.98126 9.33297 12.8607 13.5082 13.527 9.04722 
10.1249 12.9547 6.46397 11.8421 1.98438 0 1.3967 10.5435 14.4842 12.659 12.4313 10.1249 
11.5169 14.254 6.82235 11.9687 2.98126 1.3967 0 10.2652 14.551 11.2933 11.0367 11.5169 
15.8646 15.615 16.9834 22.2333 9.33297 10.5435 10.2652 0 5.12368 12.3143 13.5551 15.8646 
16.9376 15.273 20.8938 26.323 12.8607 14.4842 14.551 5.12368 0 17.244 18.5884 16.9376 
22.5537 24.4911 16.0937 19.2161 13.5082 12.659 11.2933 12.3143 17.244 0 1.86019 22.5537 
22.5023 24.7547 15.1509 17.875 13.527 12.4313 11.0367 13.5551 18.5884 1.86019 0 22.5023 
0 0 0 0 0 0 0 0 0 0 0 0 
Version identifier: 22.1.1.0 | 2022-11-28 | 9160aff4d
CPXPARAM_MIP_Tolerances_Integrality              0
Tried aggregator 1 time.
MIP Presolve eliminated 1 rows and 12 columns.
MIP Presolve modified 20 coefficients.
Reduced MIP has 122 rows, 120 columns, and 510 nonzeros.
Reduced MIP has 110 binaries, 0 generals, 0 SOSs, and 0 indicators.
Presolve time = 0.00 sec. (0.27 ticks)
Found incumbent of value 485.356420 after 0.00 sec. (0.75 ticks)
Probing time = 0.00 sec. (0.26 ticks)
Cover probing fixed 0 vars, tightened 10 bounds.
Tried aggregator 1 time.
Detecting symmetries...
MIP Presolve eliminated 10 rows and 0 columns.
MIP Presolve modified 180 coefficients.
Reduced MIP has 112 rows, 120 columns, and 490 nonzeros.
Reduced MIP has 110 binaries, 0 generals, 0 SOSs, and 0 indicators.
Presolve time = 0.00 sec. (0.35 ticks)
Probing time = 0.00 sec. (0.26 ticks)
Clique table members: 67.
MIP emphasis: balance optimality and feasibility.
MIP search method: dynamic search.
Parallel mode: deterministic, using up to 20 threads.
Root relaxation solution time = 0.00 sec. (0.22 ticks)

        Nodes                                         Cuts/
   Node  Left     Objective  IInf  Best Integer    Best Bound    ItCnt     Gap

*     0+    0                          485.3564        0.0000           100.00%
      0     0      152.0226    21      485.3564      152.0226       29   68.68%
*     0+    0                          332.1788      152.0226            54.23%
      0     0      248.9909    18      332.1788      Cuts: 33       55   25.04%
      0     0      248.9909    18      332.1788      Cuts: 35       68   25.04%
*     0+    0                          283.9184      248.9909            12.30%
      0     0      248.9909    18      283.9184      Cuts: 12       73   12.30%
*     0+    0                          264.3368      248.9909             5.81%

Clique cuts applied:  4
Implied bound cuts applied:  4
Mixed integer rounding cuts applied:  7
Multi commodity flow cuts applied:  2
Lift and project cuts applied:  1
Gomory fractional cuts applied:  3

Root node processing (before b&c):
  Real time             =    0.02 sec. (8.90 ticks)
Parallel b&c, 20 threads:
  Real time             =    0.00 sec. (0.00 ticks)
  Sync time (average)   =    0.00 sec.
  Wait time (average)   =    0.00 sec.
                          ------------
Total (root+branch&cut) =    0.02 sec. (8.90 ticks)

TSP solution for this instance: 0 1 8 7 9 10 3 2 6 5 4 11 
12
Warmstart X[1][0] == 1
Warmstart X[2][1] == 1
Warmstart X[3][8] == 1
Warmstart X[4][7] == 1
Warmstart X[5][9] == 1
Warmstart X[6][10] == 1
Warmstart X[7][3] == 1
Warmstart X[8][2] == 1
Warmstart X[9][6] == 1
Warmstart X[10][5] == 1
Warmstart X[11][4] == 1
---------------------------------------------
Calculate max stage gap for sortie.... 
Stage gap of 4 with smallest length = 20.6201 violated endurance constraint!
---------------------------------------------
Variable z[1][5] was set to 0.
Variable z[1][6] was set to 0.
Variable z[1][7] was set to 0.
Variable z[1][8] was set to 0.
Variable z[1][9] was set to 0.
Variable z[1][10] was set to 0.
Variable z[1][11] was set to 0.
Variable z[1][12] was set to 0.
Variable z[2][6] was set to 0.
Variable z[2][7] was set to 0.
Variable z[2][8] was set to 0.
Variable z[2][9] was set to 0.
Variable z[2][10] was set to 0.
Variable z[2][11] was set to 0.
Variable z[2][12] was set to 0.
Variable z[3][7] was set to 0.
Variable z[3][8] was set to 0.
Variable z[3][9] was set to 0.
Variable z[3][10] was set to 0.
Variable z[3][11] was set to 0.
Variable z[3][12] was set to 0.
Variable z[4][8] was set to 0.
Variable z[4][9] was set to 0.
Variable z[4][10] was set to 0.
Variable z[4][11] was set to 0.
Variable z[4][12] was set to 0.
Variable z[5][9] was set to 0.
Variable z[5][10] was set to 0.
Variable z[5][11] was set to 0.
Variable z[5][12] was set to 0.
Variable z[6][10] was set to 0.
Variable z[6][11] was set to 0.
Variable z[6][12] was set to 0.
Variable z[7][11] was set to 0.
Variable z[7][12] was set to 0.
Variable z[8][12] was set to 0.
Num constraint added = 5346
Warning:  Output names have been modified due to duplicate names or characters invalid in LP format.
Version identifier: 22.1.1.0 | 2022-11-28 | 9160aff4d
CPXPARAM_TimeLimit                               200
CPXPARAM_MIP_Tolerances_Integrality              0
1 of 1 MIP starts provided solutions.
MIP start 'm1' defined initial solution with objective 264.3368.
Tried aggregator 2 times.
MIP Presolve eliminated 6644 rows and 2042 columns.
MIP Presolve modified 2311 coefficients.
Aggregator did 33 substitutions.
Reduced MIP has 1421 rows, 2701 columns, and 56551 nonzeros.
Reduced MIP has 2680 binaries, 0 generals, 0 SOSs, and 0 indicators.
Presolve time = 0.07 sec. (205.33 ticks)
Probing fixed 251 vars, tightened 0 bounds.
Probing changed sense of 4 constraints.
Probing time = 0.04 sec. (83.03 ticks)
Cover probing fixed 0 vars, tightened 22 bounds.
Tried aggregator 2 times.
MIP Presolve eliminated 81 rows and 270 columns.
MIP Presolve modified 447 coefficients.
Aggregator did 18 substitutions.
Reduced MIP has 1310 rows, 2413 columns, and 45137 nonzeros.
Reduced MIP has 2392 binaries, 0 generals, 0 SOSs, and 0 indicators.
Presolve time = 0.05 sec. (103.85 ticks)
Probing time = 0.00 sec. (5.09 ticks)
Tried aggregator 1 time.
Detecting symmetries...
MIP Presolve modified 38 coefficients.
Reduced MIP has 1308 rows, 2413 columns, and 45099 nonzeros.
Reduced MIP has 2392 binaries, 0 generals, 0 SOSs, and 0 indicators.
Presolve time = 0.02 sec. (41.81 ticks)
Probing time = 0.00 sec. (5.04 ticks)
Clique table members: 13051.
MIP emphasis: balance optimality and feasibility.
MIP search method: dynamic search.
Parallel mode: deterministic, using up to 20 threads.
Root relaxation solution time = 0.13 sec. (273.96 ticks)

        Nodes                                         Cuts/
   Node  Left     Objective  IInf  Best Integer    Best Bound    ItCnt     Gap

*     0+    0                          264.3368       13.7062            94.81%
      0     0      139.1096   307      264.3368      139.1096       41   47.37%
      0     0      149.9267   353      264.3368      Cuts: 81      895   43.28%
      0     0      156.7991   288      264.3368      Cuts: 28     1490   40.68%
      0     0      167.8037   382      264.3368  ZeroHalf: 17     2363   36.52%
      0     0      171.0940   383      264.3368      Cuts: 12     3094   35.27%
      0     0      172.6562   270      264.3368       Cuts: 6     3647   34.68%
Detecting symmetries...
      0     0      174.7055   286      264.3368      Cuts: 34     4206   33.91%
      0     0      176.7602   351      264.3368  ZeroHalf: 12     4815   33.13%
      0     0      178.1896   396      264.3368      Cuts: 15     5511   32.59%
      0     0      180.8924   351      264.3368       Cuts: 7     6081   31.57%
      0     0      181.8366   411      264.3368   ZeroHalf: 7     6672   31.21%
      0     0      191.7751   268      264.3368   ZeroHalf: 5     8074   27.45%
      0     0      193.2440   254      264.3368      Cuts: 11     8751   26.89%
      0     0      196.0918   284      264.3368      Cuts: 29     9497   25.82%
      0     0      196.4359   289      264.3368   ZeroHalf: 6     9720   25.69%
      0     0      197.8398   350      264.3368       Cuts: 6    10463   25.16%
      0     0      197.9873   331      264.3368       Cuts: 2    10746   25.10%
      0     0      198.1943   312      264.3368       Cuts: 4    11058   25.02%
      0     0      198.2143   316      264.3368       Cuts: 3    11173   25.01%
      0     0      198.2144   319      264.3368   Flowcuts: 1    11192   25.01%
Detecting symmetries...
      0     2      198.2144   319      264.3368      198.2144    11192   25.01%
Elapsed time = 2.36 sec. (4174.24 ticks, tree = 0.02 MB, solutions = 1)
      2     3      198.6805   312      264.3368      198.2174    11616   25.01%
      5     3      202.5322   259      264.3368      200.0907    15218   24.30%
     14     7      208.7214   170      264.3368      203.3627    22381   23.07%
    128    37      235.0239   204      264.3368      208.1526    37426   21.25%
    400   233      246.3441    92      264.3368      215.0732   116654   18.64%
    804   415      240.0635   110      264.3368      215.9015   185603   18.32%
   1164   566        cutoff            264.3368      223.9623   236119   15.27%
   1253   631        cutoff            264.3368      225.7368   282412   14.60%
   1362   622      236.0780   148      264.3368      227.1520   304670   14.07%
*  3009  1301      integral     0      263.3675      237.0033   549636   10.01%
   3060  1239        cutoff            263.3675      237.4474   564625    9.84%
Elapsed time = 5.35 sec. (7850.25 ticks, tree = 1.35 MB, solutions = 2)
*  5268+ 1310                          260.1001      245.5631             5.59%
   5502   907        cutoff            260.1001      245.9106   827400    5.46%
*  5844   803      integral     0      257.1308      249.1342   841507    3.11%

GUB cover cuts applied:  6
Clique cuts applied:  1
Cover cuts applied:  110
Implied bound cuts applied:  2
Flow cuts applied:  1
Mixed integer rounding cuts applied:  4
Zero-half cuts applied:  55
Gomory fractional cuts applied:  1

Root node processing (before b&c):
  Real time             =    2.19 sec. (4072.80 ticks)
Parallel b&c, 20 threads:
  Real time             =    4.54 sec. (5006.57 ticks)
  Sync time (average)   =    1.73 sec.
  Wait time (average)   =    0.00 sec.
                          ------------
Total (root+branch&cut) =    6.73 sec. (9079.36 ticks)
Feasible solution found!
Truck nodes:
Stage 1 at customer 0 with arrival time is: 0
Stage 1 at customer 0 with departure time is: 0
Stage 2 at customer 1 with arrival time is: 13.7062
Stage 2 at customer 1 with departure time is: 13.7062
Stage 3 at customer 8 with arrival time is: 58.0248
Stage 3 at customer 8 with departure time is: 58.0248
Stage 4 at customer 7 with arrival time is: 71.7944
Stage 4 at customer 7 with departure time is: 71.7944
Stage 5 at customer 9 with arrival time is: 113.3
Stage 5 at customer 9 with departure time is: 113.3
Stage 6 at customer 10 with arrival time is: 120.16
Stage 6 at customer 10 with departure time is: 120.16
Stage 7 at customer 6 with arrival time is: 160.325
Stage 7 at customer 6 with departure time is: 161.325
Stage 8 at customer 5 with arrival time is: 166.481
Stage 8 at customer 5 with departure time is: 167.481
Stage 9 at customer 2 with arrival time is: 191.827
Stage 9 at customer 2 with departure time is: 191.827
Stage 10 at customer 3 with arrival time is: 211.46
Stage 10 at customer 3 with departure time is: 211.46
Stage 11 at customer 11 with arrival time is: 257.131
Stage 11 at customer 11 with departure time is: 257.131
Truck arcs:
Arc 1 connecting 0 and 1 with cost 13.7062 
Arc 2 connecting 1 and 8 with cost 44.3186 
Arc 3 connecting 8 and 7 with cost 13.7696 
Arc 4 connecting 7 and 9 with cost 41.5051 
Arc 5 connecting 9 and 10 with cost 6.86099 
Arc 6 connecting 10 and 6 with cost 40.165 
Arc 7 connecting 6 and 5 with cost 5.15502 
Arc 8 connecting 5 and 2 with cost 24.3461 
Arc 9 connecting 2 and 3 with cost 19.6337 
Arc 10 connecting 3 and 11 with cost 45.6705 
Customer 4 served by drone.
Drone fly from 6 at stage 7 to serve 4 and then fly back to 5 at stage 8. 
Truck arcs during this sortie: 6--->5
Truck travel time from stage 7 to 8 is: 5.15502
Total drone travel time: 4.96564
Drone arrival time: 166.291
Truck arrival time: 166.481
Truck departure time = max(d/a, t/a) plus (sl/sr): 167.481
Done!
-------------------------Re-calculated objective-----------------------
257.131
------------------------------------------------------------------------
Solve time: 6.732
OBJECTIVE VALUE: 257.131, NUMBER OF SORTIES: 1.
Number of revisit: 0
In write mode
